30
2 0 1
2 1 3
3 0 5
4 1 6
4 2 3
6 1 6
6 3 1
6 4 1
6 5 4
7 0 2
7 1 5
7 3 1
7 5 6
7 6 5
8 0 6
8 4 1
8 5 6
8 7 3
9 1 6
9 3 1
9 5 4
9 7 2
9 8 3
10 3 3
10 4 3
11 2 5
11 5 2
11 7 1
11 8 6
11 10 1
12 1 3
12 2 1
12 3 2
12 5 1
12 6 4
12 9 2
12 11 5
13 4 6
13 5 6
13 6 2
13 7 3
13 8 2
13 10 5
13 11 2
13 12 5
14 1 1
14 2 2
14 3 4
14 5 4
14 7 4
15 1 4
15 4 5
15 5 4
15 6 2
15 10 1
15 11 5
15 12 2
15 13 6
15 14 5
16 1 5
16 2 6
16 3 3
16 4 5
16 5 3
16 6 3
16 10 2
16 11 5
16 12 6
16 14 5
17 0 5
17 2 4
17 3 5
17 4 5
17 5 6
17 7 5
17 11 1
17 14 5
18 0 1
18 1 5
18 2 1
18 4 6
18 5 3
18 7 3
18 8 6
18 9 1
18 14 4
18 15 3
18 16 5
18 17 5
19 0 5
19 3 5
19 6 4
19 8 5
19 10 1
19 14 1
19 15 6
19 16 2
20 0 2
20 2 3
20 10 4
20 14 5
20 16 2
20 19 5
21 0 3
21 3 3
21 5 4
21 6 4
21 9 5
21 10 4
21 15 1
21 16 1
21 20 4
22 2 3
22 3 3
22 5 6
22 7 4
22 16 2
22 17 1
22 18 2
22 19 4
22 20 2
22 21 3
23 0 3
23 1 3
23 2 1
23 3 6
23 4 3
23 5 5
23 7 1
23 8 1
23 12 5
23 20 2
23 21 2
23 22 6
24 0 3
24 1 4
24 2 2
24 4 3
24 5 6
24 6 6
24 8 3
24 11 6
24 14 4
24 16 1
24 19 3
24 23 2
25 3 2
25 5 6
25 6 2
25 10 1
25 11 3
25 15 4
25 16 3
25 22 2
26 0 6
26 1 1
26 2 3
26 3 5
26 4 3
26 8 1
26 10 1
26 11 2
26 13 5
26 14 1
26 15 3
26 16 5
26 18 1
26 19 1
26 20 3
26 22 3
26 23 1
26 24 3
27 0 3
27 3 2
27 4 3
27 5 2
27 7 1
27 10 4
27 12 4
27 16 5
27 17 6
27 18 2
27 21 4
27 22 4
27 23 3
27 24 4
27 25 5
28 2 5
28 4 4
28 7 4
28 8 4
28 9 6
28 12 3
28 13 2
28 14 1
28 15 2
28 17 6
28 22 4
28 23 1
28 24 3
28 25 2
29 1 4
29 5 6
29 6 3
29 8 4
29 11 3
29 16 5
29 18 4
29 21 2
29 22 6
29 23 5
29 27 5
29 28 4
